formal_verification/runs/model_eval_v7_100/case_010/run/model/design_smt2.smt2
; SMT-LIBv2 description generated by Yosys 0.64+40 (git sha1 90b906c4f, clang++ 18.1.8 -fPIC -O3)
; yosys-smt2-module vert_formal_wrap
(declare-sort |vert_formal_wrap_s| 0)
(declare-fun |vert_formal_wrap_is| (|vert_formal_wrap_s|) Bool)
; yosys-smt2-wire auth_20 32
(define-fun |vert_formal_wrap_n auth_20| ((state |vert_formal_wrap_s|)) (_ BitVec 32) #b00000000000000000000000000000000)
; yosys-smt2-wire cfg_183 32
(define-fun |vert_formal_wrap_n cfg_183| ((state |vert_formal_wrap_s|)) (_ BitVec 32) #b00000000000000000000000000000000)
; yosys-smt2-wire cfg_2 32
(define-fun |vert_formal_wrap_n cfg_2| ((state |vert_formal_wrap_s|)) (_ BitVec 32) #b00000000000000000000000000000000)
; yosys-smt2-wire cfg_4 32
(define-fun |vert_formal_wrap_n cfg_4| ((state |vert_formal_wrap_s|)) (_ BitVec 32) #b00000000000000000000000000000000)
; yosys-smt2-wire chip_11 32
(define-fun |vert_formal_wrap_n chip_11| ((state |vert_formal_wrap_s|)) (_ BitVec 32) #b00000000000000000000000000000000)
; yosys-smt2-wire chip_12 32
(define-fun |vert_formal_wrap_n chip_12| ((state |vert_formal_wrap_s|)) (_ BitVec 32) #b00000000000000000000000000000000)
; yosys-smt2-wire chip_7 32
(define-fun |vert_formal_wrap_n chip_7| ((state |vert_formal_wrap_s|)) (_ BitVec 32) #b00000000000000000000000000000000)
; yosys-smt2-wire clk_10 32
(define-fun |vert_formal_wrap_n clk_10| ((state |vert_formal_wrap_s|)) (_ BitVec 32) #b00000000000000000000000000000000)
; yosys-smt2-wire core_15 32
(define-fun |vert_formal_wrap_n core_15| ((state |vert_formal_wrap_s|)) (_ BitVec 32) #b00000000000000000000000000000000)
; yosys-smt2-wire core_20 32
(define-fun |vert_formal_wrap_n core_20| ((state |vert_formal_wrap_s|)) (_ BitVec 32) #b00000000000000000000000000000000)
; yosys-smt2-wire data_14 32
(define-fun |vert_formal_wrap_n data_14| ((state |vert_formal_wrap_s|)) (_ BitVec 32) #b00000000000000000000000000000000)
; yosys-smt2-wire fsm_118 32
(define-fun |vert_formal_wrap_n fsm_118| ((state |vert_formal_wrap_s|)) (_ BitVec 32) #b00000000000000000000000000000000)
; yosys-smt2-wire fsm_13 32
(define-fun |vert_formal_wrap_n fsm_13| ((state |vert_formal_wrap_s|)) (_ BitVec 32) #b00000000000000000000000000000000)
; yosys-smt2-wire reg_11 32
(define-fun |vert_formal_wrap_n reg_11| ((state |vert_formal_wrap_s|)) (_ BitVec 32) #b00000000000000000000000000000000)
; yosys-smt2-wire reg_8 32
(define-fun |vert_formal_wrap_n reg_8| ((state |vert_formal_wrap_s|)) (_ BitVec 32) #b00000000000000000000000000000000)
; yosys-smt2-wire rst 1
(define-fun |vert_formal_wrap_n rst| ((state |vert_formal_wrap_s|)) Bool false)
; yosys-smt2-wire rst_13 32
(define-fun |vert_formal_wrap_n rst_13| ((state |vert_formal_wrap_s|)) (_ BitVec 32) #b00000000000000000000000000000000)
; yosys-smt2-wire rst_20 32
(define-fun |vert_formal_wrap_n rst_20| ((state |vert_formal_wrap_s|)) (_ BitVec 32) #b00000000000000000000000000000000)
; yosys-smt2-wire rx_19 32
(define-fun |vert_formal_wrap_n rx_19| ((state |vert_formal_wrap_s|)) (_ BitVec 32) #b00000000000000000000000000000000)
; yosys-smt2-wire rx_2 32
(define-fun |vert_formal_wrap_n rx_2| ((state |vert_formal_wrap_s|)) (_ BitVec 32) #b00000000000000000000000000000000)
; yosys-smt2-wire rx_6 32
(define-fun |vert_formal_wrap_n rx_6| ((state |vert_formal_wrap_s|)) (_ BitVec 32) #b00000000000000000000000000000000)
; yosys-smt2-wire rx_9 32
(define-fun |vert_formal_wrap_n rx_9| ((state |vert_formal_wrap_s|)) (_ BitVec 32) #b00000000000000000000000000000000)
; yosys-smt2-wire sig_14 32
(define-fun |vert_formal_wrap_n sig_14| ((state |vert_formal_wrap_s|)) (_ BitVec 32) #b00000000000000000000000000000000)
; yosys-smt2-assert 0 _witness_.check_assert_vert_formal_wrap_sv_100_84 vert_formal_wrap.sv:100.5-100.122
(define-fun |vert_formal_wrap_a 0| ((state |vert_formal_wrap_s|)) Bool (or true (not true))) ; _witness_.check_assert_vert_formal_wrap_sv_100_84
; yosys-smt2-assert 1 _witness_.check_assert_vert_formal_wrap_sv_101_96 vert_formal_wrap.sv:101.5-101.125
(define-fun |vert_formal_wrap_a 1| ((state |vert_formal_wrap_s|)) Bool (or true (not true))) ; _witness_.check_assert_vert_formal_wrap_sv_101_96
; yosys-smt2-assert 2 _witness_.check_assert_vert_formal_wrap_sv_94_15 vert_formal_wrap.sv:94.5-94.78
(define-fun |vert_formal_wrap_a 2| ((state |vert_formal_wrap_s|)) Bool (or true (not true))) ; _witness_.check_assert_vert_formal_wrap_sv_94_15
; yosys-smt2-assert 3 _witness_.check_assert_vert_formal_wrap_sv_95_22 vert_formal_wrap.sv:95.5-95.123
(define-fun |vert_formal_wrap_a 3| ((state |vert_formal_wrap_s|)) Bool (or true (not true))) ; _witness_.check_assert_vert_formal_wrap_sv_95_22
; yosys-smt2-assert 4 _witness_.check_assert_vert_formal_wrap_sv_96_33 vert_formal_wrap.sv:96.5-96.177
(define-fun |vert_formal_wrap_a 4| ((state |vert_formal_wrap_s|)) Bool (or true (not true))) ; _witness_.check_assert_vert_formal_wrap_sv_96_33
; yosys-smt2-assert 5 _witness_.check_assert_vert_formal_wrap_sv_97_49 vert_formal_wrap.sv:97.5-97.175
(define-fun |vert_formal_wrap_a 5| ((state |vert_formal_wrap_s|)) Bool (or true (not true))) ; _witness_.check_assert_vert_formal_wrap_sv_97_49
; yosys-smt2-assert 6 _witness_.check_assert_vert_formal_wrap_sv_98_66 vert_formal_wrap.sv:98.5-98.85
(define-fun |vert_formal_wrap_a 6| ((state |vert_formal_wrap_s|)) Bool (or true (not true))) ; _witness_.check_assert_vert_formal_wrap_sv_98_66
; yosys-smt2-assert 7 _witness_.check_assert_vert_formal_wrap_sv_99_74 vert_formal_wrap.sv:99.5-99.103
(define-fun |vert_formal_wrap_a 7| ((state |vert_formal_wrap_s|)) Bool (or true (not true))) ; _witness_.check_assert_vert_formal_wrap_sv_99_74
; yosys-smt2-assume 0 _witness_.check_assume_vert_formal_wrap_sv_93_13 vert_formal_wrap.sv:93.5-93.18
(define-fun |vert_formal_wrap_u 0| ((state |vert_formal_wrap_s|)) Bool (or true (not true))) ; _witness_.check_assume_vert_formal_wrap_sv_93_13
(define-fun |vert_formal_wrap_a| ((state |vert_formal_wrap_s|)) Bool (and
  (|vert_formal_wrap_a 0| state)
  (|vert_formal_wrap_a 1| state)
  (|vert_formal_wrap_a 2| state)
  (|vert_formal_wrap_a 3| state)
  (|vert_formal_wrap_a 4| state)
  (|vert_formal_wrap_a 5| state)
  (|vert_formal_wrap_a 6| state)
  (|vert_formal_wrap_a 7| state)
))
(define-fun |vert_formal_wrap_u| ((state |vert_formal_wrap_s|)) Bool 
  (|vert_formal_wrap_u 0| state)
)
(define-fun |vert_formal_wrap_i| ((state |vert_formal_wrap_s|)) Bool true)
(define-fun |vert_formal_wrap_h| ((state |vert_formal_wrap_s|)) Bool true)
(define-fun |vert_formal_wrap_t| ((state |vert_formal_wrap_s|) (next_state |vert_formal_wrap_s|)) Bool true) ; end of module vert_formal_wrap
; yosys-smt2-topmod vert_formal_wrap
; end of yosys output
